(set-info :origin "NTS benchmark converted to SMT-LIB2 using Eldarica (http://lara.epfl.ch/w/eldarica)")
(set-logic HORN)
(declare-fun h1 ((_ BitVec 32) (_ BitVec 32) (_ BitVec 32) (_ BitVec 32) (_ BitVec 32) (_ BitVec 32) (_ BitVec 32) (_ BitVec 32) (_ BitVec 32) (_ BitVec 32) (_ BitVec 32) (_ BitVec 32) (_ BitVec 32) (_ BitVec 32) (_ BitVec 32) (_ BitVec 32) (_ BitVec 32) (_ BitVec 32)) Bool)
(declare-fun h2 ((_ BitVec 32) (_ BitVec 32) (_ BitVec 32) (_ BitVec 32) (_ BitVec 32) (_ BitVec 32) (_ BitVec 32) (_ BitVec 32) (_ BitVec 32) (_ BitVec 32) (_ BitVec 32) (_ BitVec 32) (_ BitVec 32) (_ BitVec 32) (_ BitVec 32) (_ BitVec 32) (_ BitVec 32) (_ BitVec 32)) Bool)
(declare-fun h3 ((_ BitVec 32) (_ BitVec 32) (_ BitVec 32) (_ BitVec 32) (_ BitVec 32) (_ BitVec 32) (_ BitVec 32) (_ BitVec 32) (_ BitVec 32) (_ BitVec 32) (_ BitVec 32) (_ BitVec 32) (_ BitVec 32) (_ BitVec 32) (_ BitVec 32) (_ BitVec 32) (_ BitVec 32) (_ BitVec 32)) Bool)
(declare-fun h4 ((_ BitVec 32) (_ BitVec 32) (_ BitVec 32) (_ BitVec 32) (_ BitVec 32) (_ BitVec 32) (_ BitVec 32) (_ BitVec 32) (_ BitVec 32) (_ BitVec 32) (_ BitVec 32) (_ BitVec 32) (_ BitVec 32) (_ BitVec 32) (_ BitVec 32) (_ BitVec 32) (_ BitVec 32) (_ BitVec 32)) Bool)
(declare-fun h5 ((_ BitVec 32) (_ BitVec 32) (_ BitVec 32) (_ BitVec 32) (_ BitVec 32) (_ BitVec 32) (_ BitVec 32) (_ BitVec 32) (_ BitVec 32) (_ BitVec 32) (_ BitVec 32) (_ BitVec 32) (_ BitVec 32) (_ BitVec 32) (_ BitVec 32) (_ BitVec 32) (_ BitVec 32) (_ BitVec 32)) Bool)
(declare-fun h6 ((_ BitVec 32) (_ BitVec 32) (_ BitVec 32) (_ BitVec 32) (_ BitVec 32) (_ BitVec 32) (_ BitVec 32) (_ BitVec 32) (_ BitVec 32) (_ BitVec 32) (_ BitVec 32) (_ BitVec 32) (_ BitVec 32) (_ BitVec 32) (_ BitVec 32) (_ BitVec 32) (_ BitVec 32) (_ BitVec 32)) Bool)
(declare-fun h7 ((_ BitVec 32) (_ BitVec 32) (_ BitVec 32) (_ BitVec 32) (_ BitVec 32) (_ BitVec 32) (_ BitVec 32) (_ BitVec 32) (_ BitVec 32) (_ BitVec 32) (_ BitVec 32) (_ BitVec 32) (_ BitVec 32) (_ BitVec 32) (_ BitVec 32) (_ BitVec 32) (_ BitVec 32) (_ BitVec 32)) Bool)
(declare-fun h8 ((_ BitVec 32) (_ BitVec 32) (_ BitVec 32) (_ BitVec 32) (_ BitVec 32) (_ BitVec 32) (_ BitVec 32) (_ BitVec 32) (_ BitVec 32) (_ BitVec 32) (_ BitVec 32) (_ BitVec 32) (_ BitVec 32) (_ BitVec 32) (_ BitVec 32) (_ BitVec 32) (_ BitVec 32) (_ BitVec 32)) Bool)
(declare-fun h9 ((_ BitVec 32) (_ BitVec 32) (_ BitVec 32) (_ BitVec 32) (_ BitVec 32) (_ BitVec 32) (_ BitVec 32) (_ BitVec 32) (_ BitVec 32) (_ BitVec 32) (_ BitVec 32) (_ BitVec 32) (_ BitVec 32) (_ BitVec 32) (_ BitVec 32) (_ BitVec 32) (_ BitVec 32) (_ BitVec 32)) Bool)
(declare-fun h10 ((_ BitVec 32) (_ BitVec 32) (_ BitVec 32) (_ BitVec 32) (_ BitVec 32) (_ BitVec 32) (_ BitVec 32) (_ BitVec 32) (_ BitVec 32) (_ BitVec 32) (_ BitVec 32) (_ BitVec 32) (_ BitVec 32) (_ BitVec 32) (_ BitVec 32) (_ BitVec 32) (_ BitVec 32) (_ BitVec 32)) Bool)
(declare-fun h11 ((_ BitVec 32) (_ BitVec 32) (_ BitVec 32) (_ BitVec 32) (_ BitVec 32) (_ BitVec 32) (_ BitVec 32) (_ BitVec 32) (_ BitVec 32) (_ BitVec 32) (_ BitVec 32) (_ BitVec 32) (_ BitVec 32) (_ BitVec 32) (_ BitVec 32) (_ BitVec 32) (_ BitVec 32) (_ BitVec 32)) Bool)
(declare-fun h12 ((_ BitVec 32) (_ BitVec 32) (_ BitVec 32) (_ BitVec 32) (_ BitVec 32) (_ BitVec 32) (_ BitVec 32) (_ BitVec 32) (_ BitVec 32) (_ BitVec 32) (_ BitVec 32) (_ BitVec 32) (_ BitVec 32) (_ BitVec 32) (_ BitVec 32) (_ BitVec 32) (_ BitVec 32) (_ BitVec 32)) Bool)
(declare-fun h13 ((_ BitVec 32) (_ BitVec 32) (_ BitVec 32) (_ BitVec 32) (_ BitVec 32) (_ BitVec 32) (_ BitVec 32) (_ BitVec 32) (_ BitVec 32) (_ BitVec 32) (_ BitVec 32) (_ BitVec 32) (_ BitVec 32) (_ BitVec 32) (_ BitVec 32) (_ BitVec 32) (_ BitVec 32) (_ BitVec 32)) Bool)
(declare-fun h14 ((_ BitVec 32) (_ BitVec 32) (_ BitVec 32) (_ BitVec 32) (_ BitVec 32) (_ BitVec 32) (_ BitVec 32) (_ BitVec 32) (_ BitVec 32) (_ BitVec 32) (_ BitVec 32) (_ BitVec 32) (_ BitVec 32) (_ BitVec 32) (_ BitVec 32) (_ BitVec 32) (_ BitVec 32) (_ BitVec 32)) Bool)
(declare-fun h15 ((_ BitVec 32) (_ BitVec 32) (_ BitVec 32) (_ BitVec 32) (_ BitVec 32) (_ BitVec 32) (_ BitVec 32) (_ BitVec 32) (_ BitVec 32) (_ BitVec 32) (_ BitVec 32) (_ BitVec 32) (_ BitVec 32) (_ BitVec 32) (_ BitVec 32) (_ BitVec 32) (_ BitVec 32) (_ BitVec 32)) Bool)
(declare-fun h16 ((_ BitVec 32) (_ BitVec 32) (_ BitVec 32) (_ BitVec 32) (_ BitVec 32) (_ BitVec 32) (_ BitVec 32) (_ BitVec 32) (_ BitVec 32) (_ BitVec 32) (_ BitVec 32) (_ BitVec 32) (_ BitVec 32) (_ BitVec 32) (_ BitVec 32) (_ BitVec 32) (_ BitVec 32) (_ BitVec 32)) Bool)
(declare-fun h17 ((_ BitVec 32) (_ BitVec 32) (_ BitVec 32) (_ BitVec 32) (_ BitVec 32) (_ BitVec 32) (_ BitVec 32) (_ BitVec 32) (_ BitVec 32) (_ BitVec 32) (_ BitVec 32) (_ BitVec 32) (_ BitVec 32) (_ BitVec 32) (_ BitVec 32) (_ BitVec 32) (_ BitVec 32) (_ BitVec 32)) Bool)
(declare-fun h18 ((_ BitVec 32) (_ BitVec 32) (_ BitVec 32) (_ BitVec 32) (_ BitVec 32) (_ BitVec 32) (_ BitVec 32) (_ BitVec 32) (_ BitVec 32) (_ BitVec 32) (_ BitVec 32) (_ BitVec 32) (_ BitVec 32) (_ BitVec 32) (_ BitVec 32) (_ BitVec 32) (_ BitVec 32) (_ BitVec 32)) Bool)
(declare-fun h19 ((_ BitVec 32) (_ BitVec 32) (_ BitVec 32) (_ BitVec 32) (_ BitVec 32) (_ BitVec 32) (_ BitVec 32) (_ BitVec 32) (_ BitVec 32) (_ BitVec 32) (_ BitVec 32) (_ BitVec 32) (_ BitVec 32) (_ BitVec 32) (_ BitVec 32) (_ BitVec 32) (_ BitVec 32) (_ BitVec 32)) Bool)
(declare-fun h20 ((_ BitVec 32) (_ BitVec 32) (_ BitVec 32) (_ BitVec 32) (_ BitVec 32) (_ BitVec 32) (_ BitVec 32) (_ BitVec 32) (_ BitVec 32) (_ BitVec 32) (_ BitVec 32) (_ BitVec 32) (_ BitVec 32) (_ BitVec 32) (_ BitVec 32) (_ BitVec 32) (_ BitVec 32) (_ BitVec 32)) Bool)
(declare-fun h21 ((_ BitVec 32) (_ BitVec 32) (_ BitVec 32) (_ BitVec 32) (_ BitVec 32) (_ BitVec 32) (_ BitVec 32) (_ BitVec 32) (_ BitVec 32) (_ BitVec 32) (_ BitVec 32) (_ BitVec 32) (_ BitVec 32) (_ BitVec 32) (_ BitVec 32) (_ BitVec 32) (_ BitVec 32) (_ BitVec 32)) Bool)
(declare-fun h22 ((_ BitVec 32) (_ BitVec 32) (_ BitVec 32) (_ BitVec 32) (_ BitVec 32) (_ BitVec 32) (_ BitVec 32) (_ BitVec 32) (_ BitVec 32) (_ BitVec 32) (_ BitVec 32) (_ BitVec 32) (_ BitVec 32) (_ BitVec 32) (_ BitVec 32) (_ BitVec 32) (_ BitVec 32) (_ BitVec 32)) Bool)
(declare-fun h23 ((_ BitVec 32) (_ BitVec 32) (_ BitVec 32) (_ BitVec 32) (_ BitVec 32) (_ BitVec 32) (_ BitVec 32) (_ BitVec 32) (_ BitVec 32) (_ BitVec 32) (_ BitVec 32) (_ BitVec 32) (_ BitVec 32) (_ BitVec 32) (_ BitVec 32) (_ BitVec 32) (_ BitVec 32) (_ BitVec 32)) Bool)
(declare-fun h24 ((_ BitVec 32) (_ BitVec 32) (_ BitVec 32) (_ BitVec 32) (_ BitVec 32) (_ BitVec 32) (_ BitVec 32) (_ BitVec 32) (_ BitVec 32) (_ BitVec 32) (_ BitVec 32) (_ BitVec 32) (_ BitVec 32) (_ BitVec 32) (_ BitVec 32) (_ BitVec 32) (_ BitVec 32) (_ BitVec 32)) Bool)
(declare-fun h25 ((_ BitVec 32) (_ BitVec 32) (_ BitVec 32) (_ BitVec 32) (_ BitVec 32) (_ BitVec 32) (_ BitVec 32) (_ BitVec 32) (_ BitVec 32) (_ BitVec 32) (_ BitVec 32) (_ BitVec 32) (_ BitVec 32) (_ BitVec 32) (_ BitVec 32) (_ BitVec 32) (_ BitVec 32) (_ BitVec 32)) Bool)
(declare-fun h26 ((_ BitVec 32) (_ BitVec 32) (_ BitVec 32) (_ BitVec 32) (_ BitVec 32) (_ BitVec 32) (_ BitVec 32) (_ BitVec 32) (_ BitVec 32) (_ BitVec 32) (_ BitVec 32) (_ BitVec 32) (_ BitVec 32) (_ BitVec 32) (_ BitVec 32) (_ BitVec 32) (_ BitVec 32) (_ BitVec 32)) Bool)
(declare-fun h27 ((_ BitVec 32) (_ BitVec 32) (_ BitVec 32) (_ BitVec 32) (_ BitVec 32) (_ BitVec 32) (_ BitVec 32) (_ BitVec 32) (_ BitVec 32) (_ BitVec 32) (_ BitVec 32) (_ BitVec 32) (_ BitVec 32) (_ BitVec 32) (_ BitVec 32) (_ BitVec 32) (_ BitVec 32) (_ BitVec 32)) Bool)
(declare-fun h28 ((_ BitVec 32) (_ BitVec 32) (_ BitVec 32) (_ BitVec 32) (_ BitVec 32) (_ BitVec 32) (_ BitVec 32) (_ BitVec 32) (_ BitVec 32) (_ BitVec 32) (_ BitVec 32) (_ BitVec 32) (_ BitVec 32) (_ BitVec 32) (_ BitVec 32) (_ BitVec 32) (_ BitVec 32) (_ BitVec 32)) Bool)
(declare-fun h29 ((_ BitVec 32) (_ BitVec 32) (_ BitVec 32) (_ BitVec 32) (_ BitVec 32) (_ BitVec 32) (_ BitVec 32) (_ BitVec 32) (_ BitVec 32) (_ BitVec 32) (_ BitVec 32) (_ BitVec 32) (_ BitVec 32) (_ BitVec 32) (_ BitVec 32) (_ BitVec 32) (_ BitVec 32) (_ BitVec 32)) Bool)
(declare-fun h30 ((_ BitVec 32) (_ BitVec 32) (_ BitVec 32) (_ BitVec 32) (_ BitVec 32) (_ BitVec 32) (_ BitVec 32) (_ BitVec 32) (_ BitVec 32) (_ BitVec 32) (_ BitVec 32) (_ BitVec 32) (_ BitVec 32) (_ BitVec 32) (_ BitVec 32) (_ BitVec 32) (_ BitVec 32) (_ BitVec 32)) Bool)
(declare-fun h31 ((_ BitVec 32) (_ BitVec 32) (_ BitVec 32) (_ BitVec 32) (_ BitVec 32) (_ BitVec 32) (_ BitVec 32) (_ BitVec 32) (_ BitVec 32) (_ BitVec 32) (_ BitVec 32) (_ BitVec 32) (_ BitVec 32) (_ BitVec 32) (_ BitVec 32) (_ BitVec 32) (_ BitVec 32) (_ BitVec 32)) Bool)
(declare-fun h32 ((_ BitVec 32) (_ BitVec 32) (_ BitVec 32) (_ BitVec 32) (_ BitVec 32) (_ BitVec 32) (_ BitVec 32) (_ BitVec 32) (_ BitVec 32) (_ BitVec 32) (_ BitVec 32) (_ BitVec 32) (_ BitVec 32) (_ BitVec 32) (_ BitVec 32) (_ BitVec 32) (_ BitVec 32) (_ BitVec 32)) Bool)
(declare-fun h33 ((_ BitVec 32) (_ BitVec 32) (_ BitVec 32) (_ BitVec 32) (_ BitVec 32) (_ BitVec 32) (_ BitVec 32) (_ BitVec 32) (_ BitVec 32) (_ BitVec 32) (_ BitVec 32) (_ BitVec 32) (_ BitVec 32) (_ BitVec 32) (_ BitVec 32) (_ BitVec 32) (_ BitVec 32) (_ BitVec 32)) Bool)
(declare-fun h34 ((_ BitVec 32) (_ BitVec 32) (_ BitVec 32) (_ BitVec 32) (_ BitVec 32) (_ BitVec 32) (_ BitVec 32) (_ BitVec 32) (_ BitVec 32) (_ BitVec 32) (_ BitVec 32) (_ BitVec 32) (_ BitVec 32) (_ BitVec 32) (_ BitVec 32) (_ BitVec 32) (_ BitVec 32) (_ BitVec 32)) Bool)
(declare-fun h35 ((_ BitVec 32) (_ BitVec 32) (_ BitVec 32) (_ BitVec 32) (_ BitVec 32) (_ BitVec 32) (_ BitVec 32) (_ BitVec 32) (_ BitVec 32) (_ BitVec 32) (_ BitVec 32) (_ BitVec 32) (_ BitVec 32) (_ BitVec 32) (_ BitVec 32) (_ BitVec 32) (_ BitVec 32) (_ BitVec 32)) Bool)
(declare-fun h36 ((_ BitVec 32) (_ BitVec 32) (_ BitVec 32) (_ BitVec 32) (_ BitVec 32) (_ BitVec 32) (_ BitVec 32) (_ BitVec 32) (_ BitVec 32) (_ BitVec 32) (_ BitVec 32) (_ BitVec 32) (_ BitVec 32) (_ BitVec 32) (_ BitVec 32) (_ BitVec 32) (_ BitVec 32) (_ BitVec 32)) Bool)
(declare-fun h37 ((_ BitVec 32) (_ BitVec 32) (_ BitVec 32) (_ BitVec 32) (_ BitVec 32) (_ BitVec 32) (_ BitVec 32) (_ BitVec 32) (_ BitVec 32) (_ BitVec 32) (_ BitVec 32) (_ BitVec 32) (_ BitVec 32) (_ BitVec 32) (_ BitVec 32) (_ BitVec 32) (_ BitVec 32) (_ BitVec 32)) Bool)
(declare-fun h38 ((_ BitVec 32) (_ BitVec 32) (_ BitVec 32) (_ BitVec 32) (_ BitVec 32) (_ BitVec 32) (_ BitVec 32) (_ BitVec 32) (_ BitVec 32) (_ BitVec 32) (_ BitVec 32) (_ BitVec 32) (_ BitVec 32) (_ BitVec 32) (_ BitVec 32) (_ BitVec 32) (_ BitVec 32) (_ BitVec 32)) Bool)
(declare-fun h39 ((_ BitVec 32) (_ BitVec 32) (_ BitVec 32) (_ BitVec 32) (_ BitVec 32) (_ BitVec 32) (_ BitVec 32) (_ BitVec 32) (_ BitVec 32) (_ BitVec 32) (_ BitVec 32) (_ BitVec 32) (_ BitVec 32) (_ BitVec 32) (_ BitVec 32) (_ BitVec 32) (_ BitVec 32) (_ BitVec 32)) Bool)
(assert (forall ((A (_ BitVec 32)) (B (_ BitVec 32)) (C (_ BitVec 32)) (D (_ BitVec 32)) (E (_ BitVec 32)) (F (_ BitVec 32)) (G (_ BitVec 32)) (H (_ BitVec 32)) (I (_ BitVec 32)))(=> (= (_ bv1 32) (_ bv1 32)) (h1 A B C D E F G H I A B C D E F G H I))))
(assert (forall ((A (_ BitVec 32)) (B (_ BitVec 32)) (C (_ BitVec 32)) (D (_ BitVec 32)) (E (_ BitVec 32)) (F (_ BitVec 32)) (G (_ BitVec 32)) (H (_ BitVec 32)) (I (_ BitVec 32)) (J (_ BitVec 32)) (K (_ BitVec 32)) (L (_ BitVec 32)) (M (_ BitVec 32)) (N (_ BitVec 32)) (O (_ BitVec 32)) (P (_ BitVec 32)) (Q (_ BitVec 32)) (R (_ BitVec 32)) (S (_ BitVec 32)) (T (_ BitVec 32)) (U (_ BitVec 32)) (V (_ BitVec 32)))(=> (and (and (and (and (= J (_ bv1 32)) (= K (_ bv1 32))) (= L (_ bv2 32))) (= M (_ bv2 32))) (h1 A B C D E F G H I S T U V N O P Q R)) (h2 A B C D E F G H I J K L M N O P Q R))))
(assert (forall ((A (_ BitVec 32)) (B (_ BitVec 32)) (C (_ BitVec 32)) (D (_ BitVec 32)) (E (_ BitVec 32)) (F (_ BitVec 32)) (G (_ BitVec 32)) (H (_ BitVec 32)) (I (_ BitVec 32)) (J (_ BitVec 32)) (K (_ BitVec 32)) (L (_ BitVec 32)) (M (_ BitVec 32)) (N (_ BitVec 32)) (O (_ BitVec 32)) (P (_ BitVec 32)) (Q (_ BitVec 32)) (R (_ BitVec 32)))(=> (h2 A B C D E F G H I J K L M N O P Q R) (h3 A B C D E F G H I J K L M N O P Q R))))
(assert (forall ((A (_ BitVec 32)) (B (_ BitVec 32)) (C (_ BitVec 32)) (D (_ BitVec 32)) (E (_ BitVec 32)) (F (_ BitVec 32)) (G (_ BitVec 32)) (H (_ BitVec 32)) (I (_ BitVec 32)) (J (_ BitVec 32)) (K (_ BitVec 32)) (L (_ BitVec 32)) (M (_ BitVec 32)) (N (_ BitVec 32)) (O (_ BitVec 32)) (P (_ BitVec 32)) (Q (_ BitVec 32)) (R (_ BitVec 32)))(=> (h3 A B C D E F G H I J K L M N O P Q R) (h4 A B C D E F G H I J K L M N O P Q R))))
(assert (forall ((A (_ BitVec 32)) (B (_ BitVec 32)) (C (_ BitVec 32)) (D (_ BitVec 32)) (E (_ BitVec 32)) (F (_ BitVec 32)) (G (_ BitVec 32)) (H (_ BitVec 32)) (I (_ BitVec 32)) (J (_ BitVec 32)) (K (_ BitVec 32)) (L (_ BitVec 32)) (M (_ BitVec 32)) (N (_ BitVec 32)) (O (_ BitVec 32)) (P (_ BitVec 32)) (Q (_ BitVec 32)) (R (_ BitVec 32)))(=> (h4 A B C D E F G H I J K L M N O P Q R) (h5 A B C D E F G H I J K L M N O P Q R))))
(assert (forall ((A (_ BitVec 32)) (B (_ BitVec 32)) (C (_ BitVec 32)) (D (_ BitVec 32)) (E (_ BitVec 32)) (F (_ BitVec 32)) (G (_ BitVec 32)) (H (_ BitVec 32)) (I (_ BitVec 32)) (J (_ BitVec 32)) (K (_ BitVec 32)) (L (_ BitVec 32)) (M (_ BitVec 32)) (N (_ BitVec 32)) (O (_ BitVec 32)) (P (_ BitVec 32)) (Q (_ BitVec 32)) (R (_ BitVec 32)))(=> (h5 A B C D E F G H I J K L M N O P Q R) (h6 A B C D E F G H I J K L M N O P Q R))))
(assert (forall ((A (_ BitVec 32)) (B (_ BitVec 32)) (C (_ BitVec 32)) (D (_ BitVec 32)) (E (_ BitVec 32)) (F (_ BitVec 32)) (G (_ BitVec 32)) (H (_ BitVec 32)) (I (_ BitVec 32)) (J (_ BitVec 32)) (K (_ BitVec 32)) (L (_ BitVec 32)) (M (_ BitVec 32)) (N (_ BitVec 32)) (O (_ BitVec 32)) (P (_ BitVec 32)) (Q (_ BitVec 32)) (R (_ BitVec 32)))(=> (h6 A B C D E F G H I J K L M N O P Q R) (h7 A B C D E F G H I J K L M N O P Q R))))
(assert (forall ((A (_ BitVec 32)) (B (_ BitVec 32)) (C (_ BitVec 32)) (D (_ BitVec 32)) (E (_ BitVec 32)) (F (_ BitVec 32)) (G (_ BitVec 32)) (H (_ BitVec 32)) (I (_ BitVec 32)) (J (_ BitVec 32)) (K (_ BitVec 32)) (L (_ BitVec 32)) (M (_ BitVec 32)) (N (_ BitVec 32)) (O (_ BitVec 32)) (P (_ BitVec 32)) (Q (_ BitVec 32)) (R (_ BitVec 32)))(=> (h7 A B C D E F G H I J K L M N O P Q R) (h8 A B C D E F G H I J K L M N O P Q R))))
(assert (forall ((A (_ BitVec 32)) (B (_ BitVec 32)) (C (_ BitVec 32)) (D (_ BitVec 32)) (E (_ BitVec 32)) (F (_ BitVec 32)) (G (_ BitVec 32)) (H (_ BitVec 32)) (I (_ BitVec 32)) (J (_ BitVec 32)) (K (_ BitVec 32)) (L (_ BitVec 32)) (M (_ BitVec 32)) (N (_ BitVec 32)) (O (_ BitVec 32)) (P (_ BitVec 32)) (Q (_ BitVec 32)) (R (_ BitVec 32)))(=> (and (bvsle Q (bvneg (_ bv1 32))) (h8 A B C D E F G H I J K L M N O P Q R)) (h9 A B C D E F G H I J K L M N O P Q R))))
(assert (forall ((A (_ BitVec 32)) (B (_ BitVec 32)) (C (_ BitVec 32)) (D (_ BitVec 32)) (E (_ BitVec 32)) (F (_ BitVec 32)) (G (_ BitVec 32)) (H (_ BitVec 32)) (I (_ BitVec 32)) (J (_ BitVec 32)) (K (_ BitVec 32)) (L (_ BitVec 32)) (M (_ BitVec 32)) (N (_ BitVec 32)) (O (_ BitVec 32)) (P (_ BitVec 32)) (Q (_ BitVec 32)) (R (_ BitVec 32)) (S (_ BitVec 32)) (T (_ BitVec 32)))(=> (and (and (= J (bvadd (bvneg L) N)) (= K (bvadd (bvneg M) O))) (h9 A B C D E F G H I J K L M S T P Q R)) (h10 A B C D E F G H I J K L M N O P Q R))))
(assert (forall ((A (_ BitVec 32)) (B (_ BitVec 32)) (C (_ BitVec 32)) (D (_ BitVec 32)) (E (_ BitVec 32)) (F (_ BitVec 32)) (G (_ BitVec 32)) (H (_ BitVec 32)) (I (_ BitVec 32)) (J (_ BitVec 32)) (K (_ BitVec 32)) (L (_ BitVec 32)) (M (_ BitVec 32)) (N (_ BitVec 32)) (O (_ BitVec 32)) (P (_ BitVec 32)) (Q (_ BitVec 32)) (R (_ BitVec 32)))(=> (and (bvsge Q (_ bv1 32)) (h8 A B C D E F G H I J K L M N O P Q R)) (h11 A B C D E F G H I J K L M N O P Q R))))
(assert (forall ((A (_ BitVec 32)) (B (_ BitVec 32)) (C (_ BitVec 32)) (D (_ BitVec 32)) (E (_ BitVec 32)) (F (_ BitVec 32)) (G (_ BitVec 32)) (H (_ BitVec 32)) (I (_ BitVec 32)) (J (_ BitVec 32)) (K (_ BitVec 32)) (L (_ BitVec 32)) (M (_ BitVec 32)) (N (_ BitVec 32)) (O (_ BitVec 32)) (P (_ BitVec 32)) (Q (_ BitVec 32)) (R (_ BitVec 32)) (S (_ BitVec 32)) (T (_ BitVec 32)))(=> (and (and (= J (bvadd (bvneg L) N)) (= K (bvadd (bvneg M) O))) (h11 A B C D E F G H I J K L M S T P Q R)) (h10 A B C D E F G H I J K L M N O P Q R))))
(assert (forall ((A (_ BitVec 32)) (B (_ BitVec 32)) (C (_ BitVec 32)) (D (_ BitVec 32)) (E (_ BitVec 32)) (F (_ BitVec 32)) (G (_ BitVec 32)) (H (_ BitVec 32)) (I (_ BitVec 32)) (J (_ BitVec 32)) (K (_ BitVec 32)) (L (_ BitVec 32)) (M (_ BitVec 32)) (N (_ BitVec 32)) (O (_ BitVec 32)) (P (_ BitVec 32)) (Q (_ BitVec 32)) (R (_ BitVec 32)))(=> (and (= Q (_ bv0 32)) (h8 A B C D E F G H I J K L M N O P Q R)) (h12 A B C D E F G H I J K L M N O P Q R))))
(assert (forall ((A (_ BitVec 32)) (B (_ BitVec 32)) (C (_ BitVec 32)) (D (_ BitVec 32)) (E (_ BitVec 32)) (F (_ BitVec 32)) (G (_ BitVec 32)) (H (_ BitVec 32)) (I (_ BitVec 32)) (J (_ BitVec 32)) (K (_ BitVec 32)) (L (_ BitVec 32)) (M (_ BitVec 32)) (N (_ BitVec 32)) (O (_ BitVec 32)) (P (_ BitVec 32)) (Q (_ BitVec 32)) (R (_ BitVec 32)))(=> (h12 A B C D E F G H I J K L M N O P Q R) (h13 A B C D E F G H I J K L M N O P Q R))))
(assert (forall ((A (_ BitVec 32)) (B (_ BitVec 32)) (C (_ BitVec 32)) (D (_ BitVec 32)) (E (_ BitVec 32)) (F (_ BitVec 32)) (G (_ BitVec 32)) (H (_ BitVec 32)) (I (_ BitVec 32)) (J (_ BitVec 32)) (K (_ BitVec 32)) (L (_ BitVec 32)) (M (_ BitVec 32)) (N (_ BitVec 32)) (O (_ BitVec 32)) (P (_ BitVec 32)) (Q (_ BitVec 32)) (R (_ BitVec 32)))(=> (h13 A B C D E F G H I J K L M N O P Q R) (h14 A B C D E F G H I J K L M N O P Q R))))
(assert (forall ((A (_ BitVec 32)) (B (_ BitVec 32)) (C (_ BitVec 32)) (D (_ BitVec 32)) (E (_ BitVec 32)) (F (_ BitVec 32)) (G (_ BitVec 32)) (H (_ BitVec 32)) (I (_ BitVec 32)) (J (_ BitVec 32)) (K (_ BitVec 32)) (L (_ BitVec 32)) (M (_ BitVec 32)) (N (_ BitVec 32)) (O (_ BitVec 32)) (P (_ BitVec 32)) (Q (_ BitVec 32)) (R (_ BitVec 32)))(=> (h10 A B C D E F G H I J K L M N O P Q R) (h15 A B C D E F G H I J K L M N O P Q R))))
(assert (forall ((A (_ BitVec 32)) (B (_ BitVec 32)) (C (_ BitVec 32)) (D (_ BitVec 32)) (E (_ BitVec 32)) (F (_ BitVec 32)) (G (_ BitVec 32)) (H (_ BitVec 32)) (I (_ BitVec 32)) (J (_ BitVec 32)) (K (_ BitVec 32)) (L (_ BitVec 32)) (M (_ BitVec 32)) (N (_ BitVec 32)) (O (_ BitVec 32)) (P (_ BitVec 32)) (Q (_ BitVec 32)) (R (_ BitVec 32)))(=> (h15 A B C D E F G H I J K L M N O P Q R) (h16 A B C D E F G H I J K L M N O P Q R))))
(assert (forall ((A (_ BitVec 32)) (B (_ BitVec 32)) (C (_ BitVec 32)) (D (_ BitVec 32)) (E (_ BitVec 32)) (F (_ BitVec 32)) (G (_ BitVec 32)) (H (_ BitVec 32)) (I (_ BitVec 32)) (J (_ BitVec 32)) (K (_ BitVec 32)) (L (_ BitVec 32)) (M (_ BitVec 32)) (N (_ BitVec 32)) (O (_ BitVec 32)) (P (_ BitVec 32)) (Q (_ BitVec 32)) (R (_ BitVec 32)) (S (_ BitVec 32)) (T (_ BitVec 32)))(=> (and (and (= S (bvadd (bvneg (_ bv1 32)) J)) (= T (bvadd (bvneg (_ bv1 32)) M))) (h16 A B C D E F G H I S K L T N O P Q R)) (h17 A B C D E F G H I J K L M N O P Q R))))
(assert (forall ((A (_ BitVec 32)) (B (_ BitVec 32)) (C (_ BitVec 32)) (D (_ BitVec 32)) (E (_ BitVec 32)) (F (_ BitVec 32)) (G (_ BitVec 32)) (H (_ BitVec 32)) (I (_ BitVec 32)) (J (_ BitVec 32)) (K (_ BitVec 32)) (L (_ BitVec 32)) (M (_ BitVec 32)) (N (_ BitVec 32)) (O (_ BitVec 32)) (P (_ BitVec 32)) (Q (_ BitVec 32)) (R (_ BitVec 32)))(=> (h15 A B C D E F G H I J K L M N O P Q R) (h18 A B C D E F G H I J K L M N O P Q R))))
(assert (forall ((A (_ BitVec 32)) (B (_ BitVec 32)) (C (_ BitVec 32)) (D (_ BitVec 32)) (E (_ BitVec 32)) (F (_ BitVec 32)) (G (_ BitVec 32)) (H (_ BitVec 32)) (I (_ BitVec 32)) (J (_ BitVec 32)) (K (_ BitVec 32)) (L (_ BitVec 32)) (M (_ BitVec 32)) (N (_ BitVec 32)) (O (_ BitVec 32)) (P (_ BitVec 32)) (Q (_ BitVec 32)) (R (_ BitVec 32)) (S (_ BitVec 32)))(=> (and (= S (bvadd (_ bv1 32) J)) (h18 A B C D E F G H I S K L M N O P Q R)) (h19 A B C D E F G H I J K L M N O P Q R))))
(assert (forall ((A (_ BitVec 32)) (B (_ BitVec 32)) (C (_ BitVec 32)) (D (_ BitVec 32)) (E (_ BitVec 32)) (F (_ BitVec 32)) (G (_ BitVec 32)) (H (_ BitVec 32)) (I (_ BitVec 32)) (J (_ BitVec 32)) (K (_ BitVec 32)) (L (_ BitVec 32)) (M (_ BitVec 32)) (N (_ BitVec 32)) (O (_ BitVec 32)) (P (_ BitVec 32)) (Q (_ BitVec 32)) (R (_ BitVec 32)))(=> (h15 A B C D E F G H I J K L M N O P Q R) (h20 A B C D E F G H I J K L M N O P Q R))))
(assert (forall ((A (_ BitVec 32)) (B (_ BitVec 32)) (C (_ BitVec 32)) (D (_ BitVec 32)) (E (_ BitVec 32)) (F (_ BitVec 32)) (G (_ BitVec 32)) (H (_ BitVec 32)) (I (_ BitVec 32)) (J (_ BitVec 32)) (K (_ BitVec 32)) (L (_ BitVec 32)) (M (_ BitVec 32)) (N (_ BitVec 32)) (O (_ BitVec 32)) (P (_ BitVec 32)) (Q (_ BitVec 32)) (R (_ BitVec 32)) (S (_ BitVec 32)))(=> (and (= S (bvadd (_ bv1 32) J)) (h20 A B C D E F G H I S K L M N O P Q R)) (h19 A B C D E F G H I J K L M N O P Q R))))
(assert (forall ((A (_ BitVec 32)) (B (_ BitVec 32)) (C (_ BitVec 32)) (D (_ BitVec 32)) (E (_ BitVec 32)) (F (_ BitVec 32)) (G (_ BitVec 32)) (H (_ BitVec 32)) (I (_ BitVec 32)) (J (_ BitVec 32)) (K (_ BitVec 32)) (L (_ BitVec 32)) (M (_ BitVec 32)) (N (_ BitVec 32)) (O (_ BitVec 32)) (P (_ BitVec 32)) (Q (_ BitVec 32)) (R (_ BitVec 32)))(=> (h17 A B C D E F G H I J K L M N O P Q R) (h21 A B C D E F G H I J K L M N O P Q R))))
(assert (forall ((A (_ BitVec 32)) (B (_ BitVec 32)) (C (_ BitVec 32)) (D (_ BitVec 32)) (E (_ BitVec 32)) (F (_ BitVec 32)) (G (_ BitVec 32)) (H (_ BitVec 32)) (I (_ BitVec 32)) (J (_ BitVec 32)) (K (_ BitVec 32)) (L (_ BitVec 32)) (M (_ BitVec 32)) (N (_ BitVec 32)) (O (_ BitVec 32)) (P (_ BitVec 32)) (Q (_ BitVec 32)) (R (_ BitVec 32)))(=> (h19 A B C D E F G H I J K L M N O P Q R) (h21 A B C D E F G H I J K L M N O P Q R))))
(assert (forall ((A (_ BitVec 32)) (B (_ BitVec 32)) (C (_ BitVec 32)) (D (_ BitVec 32)) (E (_ BitVec 32)) (F (_ BitVec 32)) (G (_ BitVec 32)) (H (_ BitVec 32)) (I (_ BitVec 32)) (J (_ BitVec 32)) (K (_ BitVec 32)) (L (_ BitVec 32)) (M (_ BitVec 32)) (N (_ BitVec 32)) (O (_ BitVec 32)) (P (_ BitVec 32)) (Q (_ BitVec 32)) (R (_ BitVec 32)))(=> (h21 A B C D E F G H I J K L M N O P Q R) (h22 A B C D E F G H I J K L M N O P Q R))))
(assert (forall ((A (_ BitVec 32)) (B (_ BitVec 32)) (C (_ BitVec 32)) (D (_ BitVec 32)) (E (_ BitVec 32)) (F (_ BitVec 32)) (G (_ BitVec 32)) (H (_ BitVec 32)) (I (_ BitVec 32)) (J (_ BitVec 32)) (K (_ BitVec 32)) (L (_ BitVec 32)) (M (_ BitVec 32)) (N (_ BitVec 32)) (O (_ BitVec 32)) (P (_ BitVec 32)) (Q (_ BitVec 32)) (R (_ BitVec 32)))(=> (h22 A B C D E F G H I J K L M N O P Q R) (h23 A B C D E F G H I J K L M N O P Q R))))
(assert (forall ((A (_ BitVec 32)) (B (_ BitVec 32)) (C (_ BitVec 32)) (D (_ BitVec 32)) (E (_ BitVec 32)) (F (_ BitVec 32)) (G (_ BitVec 32)) (H (_ BitVec 32)) (I (_ BitVec 32)) (J (_ BitVec 32)) (K (_ BitVec 32)) (L (_ BitVec 32)) (M (_ BitVec 32)) (N (_ BitVec 32)) (O (_ BitVec 32)) (P (_ BitVec 32)) (Q (_ BitVec 32)) (R (_ BitVec 32)))(=> (h23 A B C D E F G H I J K L M N O P Q R) (h24 A B C D E F G H I J K L M N O P Q R))))
(assert (forall ((A (_ BitVec 32)) (B (_ BitVec 32)) (C (_ BitVec 32)) (D (_ BitVec 32)) (E (_ BitVec 32)) (F (_ BitVec 32)) (G (_ BitVec 32)) (H (_ BitVec 32)) (I (_ BitVec 32)) (J (_ BitVec 32)) (K (_ BitVec 32)) (L (_ BitVec 32)) (M (_ BitVec 32)) (N (_ BitVec 32)) (O (_ BitVec 32)) (P (_ BitVec 32)) (Q (_ BitVec 32)) (R (_ BitVec 32)))(=> (h24 A B C D E F G H I J K L M N O P Q R) (h25 A B C D E F G H I J K L M N O P Q R))))
(assert (forall ((A (_ BitVec 32)) (B (_ BitVec 32)) (C (_ BitVec 32)) (D (_ BitVec 32)) (E (_ BitVec 32)) (F (_ BitVec 32)) (G (_ BitVec 32)) (H (_ BitVec 32)) (I (_ BitVec 32)) (J (_ BitVec 32)) (K (_ BitVec 32)) (L (_ BitVec 32)) (M (_ BitVec 32)) (N (_ BitVec 32)) (O (_ BitVec 32)) (P (_ BitVec 32)) (Q (_ BitVec 32)) (R (_ BitVec 32)))(=> (h25 A B C D E F G H I J K L M N O P Q R) (h26 A B C D E F G H I J K L M N O P Q R))))
(assert (forall ((A (_ BitVec 32)) (B (_ BitVec 32)) (C (_ BitVec 32)) (D (_ BitVec 32)) (E (_ BitVec 32)) (F (_ BitVec 32)) (G (_ BitVec 32)) (H (_ BitVec 32)) (I (_ BitVec 32)) (J (_ BitVec 32)) (K (_ BitVec 32)) (L (_ BitVec 32)) (M (_ BitVec 32)) (N (_ BitVec 32)) (O (_ BitVec 32)) (P (_ BitVec 32)) (Q (_ BitVec 32)) (R (_ BitVec 32)))(=> (and (bvsle P (bvneg (_ bv1 32))) (h26 A B C D E F G H I J K L M N O P Q R)) (h27 A B C D E F G H I J K L M N O P Q R))))
(assert (forall ((A (_ BitVec 32)) (B (_ BitVec 32)) (C (_ BitVec 32)) (D (_ BitVec 32)) (E (_ BitVec 32)) (F (_ BitVec 32)) (G (_ BitVec 32)) (H (_ BitVec 32)) (I (_ BitVec 32)) (J (_ BitVec 32)) (K (_ BitVec 32)) (L (_ BitVec 32)) (M (_ BitVec 32)) (N (_ BitVec 32)) (O (_ BitVec 32)) (P (_ BitVec 32)) (Q (_ BitVec 32)) (R (_ BitVec 32)) (S (_ BitVec 32)) (T (_ BitVec 32)))(=> (and (and (= S (bvadd (_ bv1 32) L)) (= T (bvadd (_ bv1 32) K))) (h27 A B C D E F G H I J T S M N O P Q R)) (h28 A B C D E F G H I J K L M N O P Q R))))
(assert (forall ((A (_ BitVec 32)) (B (_ BitVec 32)) (C (_ BitVec 32)) (D (_ BitVec 32)) (E (_ BitVec 32)) (F (_ BitVec 32)) (G (_ BitVec 32)) (H (_ BitVec 32)) (I (_ BitVec 32)) (J (_ BitVec 32)) (K (_ BitVec 32)) (L (_ BitVec 32)) (M (_ BitVec 32)) (N (_ BitVec 32)) (O (_ BitVec 32)) (P (_ BitVec 32)) (Q (_ BitVec 32)) (R (_ BitVec 32)))(=> (and (bvsge P (_ bv1 32)) (h26 A B C D E F G H I J K L M N O P Q R)) (h29 A B C D E F G H I J K L M N O P Q R))))
(assert (forall ((A (_ BitVec 32)) (B (_ BitVec 32)) (C (_ BitVec 32)) (D (_ BitVec 32)) (E (_ BitVec 32)) (F (_ BitVec 32)) (G (_ BitVec 32)) (H (_ BitVec 32)) (I (_ BitVec 32)) (J (_ BitVec 32)) (K (_ BitVec 32)) (L (_ BitVec 32)) (M (_ BitVec 32)) (N (_ BitVec 32)) (O (_ BitVec 32)) (P (_ BitVec 32)) (Q (_ BitVec 32)) (R (_ BitVec 32)) (S (_ BitVec 32)) (T (_ BitVec 32)))(=> (and (and (= S (bvadd (_ bv1 32) L)) (= T (bvadd (_ bv1 32) K))) (h29 A B C D E F G H I J T S M N O P Q R)) (h28 A B C D E F G H I J K L M N O P Q R))))
(assert (forall ((A (_ BitVec 32)) (B (_ BitVec 32)) (C (_ BitVec 32)) (D (_ BitVec 32)) (E (_ BitVec 32)) (F (_ BitVec 32)) (G (_ BitVec 32)) (H (_ BitVec 32)) (I (_ BitVec 32)) (J (_ BitVec 32)) (K (_ BitVec 32)) (L (_ BitVec 32)) (M (_ BitVec 32)) (N (_ BitVec 32)) (O (_ BitVec 32)) (P (_ BitVec 32)) (Q (_ BitVec 32)) (R (_ BitVec 32)))(=> (and (= P (_ bv0 32)) (h26 A B C D E F G H I J K L M N O P Q R)) (h30 A B C D E F G H I J K L M N O P Q R))))
(assert (forall ((A (_ BitVec 32)) (B (_ BitVec 32)) (C (_ BitVec 32)) (D (_ BitVec 32)) (E (_ BitVec 32)) (F (_ BitVec 32)) (G (_ BitVec 32)) (H (_ BitVec 32)) (I (_ BitVec 32)) (J (_ BitVec 32)) (K (_ BitVec 32)) (L (_ BitVec 32)) (M (_ BitVec 32)) (N (_ BitVec 32)) (O (_ BitVec 32)) (P (_ BitVec 32)) (Q (_ BitVec 32)) (R (_ BitVec 32)))(=> (h30 A B C D E F G H I J K L M N O P Q R) (h31 A B C D E F G H I J K L M N O P Q R))))
(assert (forall ((A (_ BitVec 32)) (B (_ BitVec 32)) (C (_ BitVec 32)) (D (_ BitVec 32)) (E (_ BitVec 32)) (F (_ BitVec 32)) (G (_ BitVec 32)) (H (_ BitVec 32)) (I (_ BitVec 32)) (J (_ BitVec 32)) (K (_ BitVec 32)) (L (_ BitVec 32)) (M (_ BitVec 32)) (N (_ BitVec 32)) (O (_ BitVec 32)) (P (_ BitVec 32)) (Q (_ BitVec 32)) (R (_ BitVec 32)))(=> (h31 A B C D E F G H I J K L M N O P Q R) (h32 A B C D E F G H I J K L M N O P Q R))))
(assert (forall ((A (_ BitVec 32)) (B (_ BitVec 32)) (C (_ BitVec 32)) (D (_ BitVec 32)) (E (_ BitVec 32)) (F (_ BitVec 32)) (G (_ BitVec 32)) (H (_ BitVec 32)) (I (_ BitVec 32)) (J (_ BitVec 32)) (K (_ BitVec 32)) (L (_ BitVec 32)) (M (_ BitVec 32)) (N (_ BitVec 32)) (O (_ BitVec 32)) (P (_ BitVec 32)) (Q (_ BitVec 32)) (R (_ BitVec 32)))(=> (h28 A B C D E F G H I J K L M N O P Q R) (h23 A B C D E F G H I J K L M N O P Q R))))
(assert (forall ((A (_ BitVec 32)) (B (_ BitVec 32)) (C (_ BitVec 32)) (D (_ BitVec 32)) (E (_ BitVec 32)) (F (_ BitVec 32)) (G (_ BitVec 32)) (H (_ BitVec 32)) (I (_ BitVec 32)) (J (_ BitVec 32)) (K (_ BitVec 32)) (L (_ BitVec 32)) (M (_ BitVec 32)) (N (_ BitVec 32)) (O (_ BitVec 32)) (P (_ BitVec 32)) (Q (_ BitVec 32)) (R (_ BitVec 32)))(=> (h32 A B C D E F G H I J K L M N O P Q R) (h5 A B C D E F G H I J K L M N O P Q R))))
(assert (forall ((A (_ BitVec 32)) (B (_ BitVec 32)) (C (_ BitVec 32)) (D (_ BitVec 32)) (E (_ BitVec 32)) (F (_ BitVec 32)) (G (_ BitVec 32)) (H (_ BitVec 32)) (I (_ BitVec 32)) (J (_ BitVec 32)) (K (_ BitVec 32)) (L (_ BitVec 32)) (M (_ BitVec 32)) (N (_ BitVec 32)) (O (_ BitVec 32)) (P (_ BitVec 32)) (Q (_ BitVec 32)) (R (_ BitVec 32)))(=> (h14 A B C D E F G H I J K L M N O P Q R) (h33 A B C D E F G H I J K L M N O P Q R))))
(assert (forall ((A (_ BitVec 32)) (B (_ BitVec 32)) (C (_ BitVec 32)) (D (_ BitVec 32)) (E (_ BitVec 32)) (F (_ BitVec 32)) (G (_ BitVec 32)) (H (_ BitVec 32)) (I (_ BitVec 32)) (J (_ BitVec 32)) (K (_ BitVec 32)) (L (_ BitVec 32)) (M (_ BitVec 32)) (N (_ BitVec 32)) (O (_ BitVec 32)) (P (_ BitVec 32)) (Q (_ BitVec 32)) (R (_ BitVec 32)))(=> (and (bvsle (bvsub (bvadd (bvsub J K) L) M) (bvneg (_ bv1 32))) (h33 A B C D E F G H I J K L M N O P Q R)) (h34 A B C D E F G H I J K L M N O P Q R))))
(assert (not (exists ((A (_ BitVec 32)) (B (_ BitVec 32)) (C (_ BitVec 32)) (D (_ BitVec 32)) (E (_ BitVec 32)) (F (_ BitVec 32)) (G (_ BitVec 32)) (H (_ BitVec 32)) (I (_ BitVec 32)) (J (_ BitVec 32)) (K (_ BitVec 32)) (L (_ BitVec 32)) (M (_ BitVec 32)) (N (_ BitVec 32)) (O (_ BitVec 32)) (P (_ BitVec 32)) (Q (_ BitVec 32)) (R (_ BitVec 32)))(h34 A B C D E F G H I J K L M N O P Q R))))
(assert (forall ((A (_ BitVec 32)) (B (_ BitVec 32)) (C (_ BitVec 32)) (D (_ BitVec 32)) (E (_ BitVec 32)) (F (_ BitVec 32)) (G (_ BitVec 32)) (H (_ BitVec 32)) (I (_ BitVec 32)) (J (_ BitVec 32)) (K (_ BitVec 32)) (L (_ BitVec 32)) (M (_ BitVec 32)) (N (_ BitVec 32)) (O (_ BitVec 32)) (P (_ BitVec 32)) (Q (_ BitVec 32)) (R (_ BitVec 32)))(=> (and (bvsge (bvsub (bvadd (bvsub J K) L) M) (_ bv1 32)) (h33 A B C D E F G H I J K L M N O P Q R)) (h35 A B C D E F G H I J K L M N O P Q R))))
(assert (not (exists ((A (_ BitVec 32)) (B (_ BitVec 32)) (C (_ BitVec 32)) (D (_ BitVec 32)) (E (_ BitVec 32)) (F (_ BitVec 32)) (G (_ BitVec 32)) (H (_ BitVec 32)) (I (_ BitVec 32)) (J (_ BitVec 32)) (K (_ BitVec 32)) (L (_ BitVec 32)) (M (_ BitVec 32)) (N (_ BitVec 32)) (O (_ BitVec 32)) (P (_ BitVec 32)) (Q (_ BitVec 32)) (R (_ BitVec 32)))(h35 A B C D E F G H I J K L M N O P Q R))))
(assert (forall ((A (_ BitVec 32)) (B (_ BitVec 32)) (C (_ BitVec 32)) (D (_ BitVec 32)) (E (_ BitVec 32)) (F (_ BitVec 32)) (G (_ BitVec 32)) (H (_ BitVec 32)) (I (_ BitVec 32)) (J (_ BitVec 32)) (K (_ BitVec 32)) (L (_ BitVec 32)) (M (_ BitVec 32)) (N (_ BitVec 32)) (O (_ BitVec 32)) (P (_ BitVec 32)) (Q (_ BitVec 32)) (R (_ BitVec 32)))(=> (and (= J (bvadd (bvsub K L) M)) (h33 A B C D E F G H I J K L M N O P Q R)) (h36 A B C D E F G H I J K L M N O P Q R))))
(assert (forall ((A (_ BitVec 32)) (B (_ BitVec 32)) (C (_ BitVec 32)) (D (_ BitVec 32)) (E (_ BitVec 32)) (F (_ BitVec 32)) (G (_ BitVec 32)) (H (_ BitVec 32)) (I (_ BitVec 32)) (J (_ BitVec 32)) (K (_ BitVec 32)) (L (_ BitVec 32)) (M (_ BitVec 32)) (N (_ BitVec 32)) (O (_ BitVec 32)) (P (_ BitVec 32)) (Q (_ BitVec 32)) (R (_ BitVec 32)) (S (_ BitVec 32)))(=> (and (= R (_ bv0 32)) (h36 A B C D E F G H I J K L M N O P Q S)) (h37 A B C D E F G H I J K L M N O P Q R))))
(assert (forall ((A (_ BitVec 32)) (B (_ BitVec 32)) (C (_ BitVec 32)) (D (_ BitVec 32)) (E (_ BitVec 32)) (F (_ BitVec 32)) (G (_ BitVec 32)) (H (_ BitVec 32)) (I (_ BitVec 32)) (J (_ BitVec 32)) (K (_ BitVec 32)) (L (_ BitVec 32)) (M (_ BitVec 32)) (N (_ BitVec 32)) (O (_ BitVec 32)) (P (_ BitVec 32)) (Q (_ BitVec 32)) (R (_ BitVec 32)))(=> (h37 A B C D E F G H I J K L M N O P Q R) (h38 A B C D E F G H I J K L M N O P Q R))))
(assert (forall ((A (_ BitVec 32)) (B (_ BitVec 32)) (C (_ BitVec 32)) (D (_ BitVec 32)) (E (_ BitVec 32)) (F (_ BitVec 32)) (G (_ BitVec 32)) (H (_ BitVec 32)) (I (_ BitVec 32)) (J (_ BitVec 32)) (K (_ BitVec 32)) (L (_ BitVec 32)) (M (_ BitVec 32)) (N (_ BitVec 32)) (O (_ BitVec 32)) (P (_ BitVec 32)) (Q (_ BitVec 32)) (R (_ BitVec 32)))(=> (h38 A B C D E F G H I J K L M N O P Q R) (h39 A B C D E F G H I J K L M N O P Q R))))
(check-sat)
